c Source: inf-euroroad (2-hop neighborhood of node 43)
c n=28, m=41, circuit_rank=14
c Augmented with 12 edges for Eulerian condition
p sp 28
e 3 22
e 4 16
e 5 6
e 15 20
e 9 25
e 9 18
e 7 8
e 4 15
e 2 3
e 8 9
e 7 19
e 4 13
e 4 9
e 9 10
e 15 24
e 16 17
e 3 21
e 12 13
e 3 4
e 3 23
e 4 5
e 1 15
e 4 8
e 15 22
e 8 19
e 13 14
e 1 13
e 11 13
e 16 23
e 2 26
e 3 26
e 4 6
e 9 27
e 10 27
e 11 12
e 13 28
e 14 28
e 15 16
e 17 18
e 20 21
e 24 25
